************************************************************************
file with basedata            : mm51_.bas
initial value random generator: 2118285693
************************************************************************
projects                      :  1
jobs (incl. supersource/sink ):  12
horizon                       :  84
RESOURCES
  - renewable                 :  2   R
  - nonrenewable              :  2   N
  - doubly constrained        :  0   D
************************************************************************
PROJECT INFORMATION:
pronr.  #jobs rel.date duedate tardcost  MPM-Time
    1     10      0       21        5       21
************************************************************************
PRECEDENCE RELATIONS:
jobnr.    #modes  #successors   successors
   1        1          3           2   3   4
   2        3          3           6   9  10
   3        3          1           7
   4        3          1           5
   5        3          3           6   7   9
   6        3          1          11
   7        3          2           8  10
   8        3          1          11
   9        3          1          12
  10        3          1          12
  11        3          1          12
  12        1          0        
************************************************************************
REQUESTS/DURATIONS:
jobnr. mode duration  R 1  R 2  N 1  N 2
------------------------------------------------------------------------
  1      1     0       0    0    0    0
  2      1     3       9    4    0    6
         2     8       6    3    4    0
         3     9       5    3    3    0
  3      1     1       6    9    9    0
         2     2       3    7    0    7
         3     7       3    6    0    5
  4      1     2       4    3    0    4
         2     2       4    3    8    0
         3     8       3    3    8    0
  5      1     5       6    5    0   10
         2     8       6    4    0    9
         3    10       3    2    0    9
  6      1     1       6    9    8    0
         2     1       6    9    0    3
         3     8       6    8    9    0
  7      1     3       5    6    0    5
         2     3       4    6    7    0
         3    10       3    4    0    3
  8      1     4       6   10    7    0
         2     6       4    8    5    0
         3     7       3    7    5    0
  9      1     2       8    5    5    0
         2     2       8    5    0    7
         3     5       5    4    0    3
 10      1     3       6   10    0    7
         2    10       6    9    1    0
         3    10       6   10    0    4
 11      1     7       7    4    0    1
         2    10       6    3    9    0
         3    10       2    3   10    0
 12      1     0       0    0    0    0
************************************************************************
RESOURCEAVAILABILITIES:
  R 1  R 2  N 1  N 2
   15   17   44   38
************************************************************************
MAXIMAL LAGS:
from  to  type  delay
    1   12   ES      0
    1    2   ES      0
    2   12   ES      0
    1    3   ES      0
    3   12   ES      0
    1    4   ES      0
    4   12   ES      0
    1    5   ES      0
    5   12   ES      0
    1    6   ES      0
    6   12   ES      0
    1    7   ES      0
    7   12   ES      0
    1    8   ES      0
    8   12   ES      0
    1    9   ES      0
    9   12   ES      0
    1   10   ES      0
   10   12   ES      0
    1   11   ES      0
   11   12   ES      0
    1   12   ES      0
    2    6   SS      2
    2    6   SE      9
    2    6   ES      6
    2    6   EE      4
    2    9   SS      4
    2    9   SE      6
    2    9   ES     -4
    2    9   EE     12
    2   10   SS     -8
    2   10   SE     -2
    2   10   ES      1
    2   10   EE     -1
    3    7   SS      9
    3    7   SE     -8
    3    7   ES      6
    3    7   EE     11
    4    5   SS    -11
    4    5   SE     11
    5    4   SE      0
    4    5   ES      0
    4    5   EE      8
    5    6   SS    -11
    5    6   SE     -6
    5    6   ES     -7
    5    6   EE    -12
    5    7   SS     -8
    5    7   SE      8
    5    7   ES    -11
    5    7   EE     -5
    5    9   SS     -7
    5    9   SE      0
    5    9   ES     -2
    5    9   EE    -12
    6   11   SS      6
    6   11   SE      3
    6   11   ES      3
    6   11   EE     -1
    7    8   SS     -6
    7    8   SE      8
    7    8   ES      6
    7    8   EE      0
    7   10   SS      2
    7   10   SE     -6
    7   10   ES      2
    7   10   EE      7
    8   11   SS     -4
    8   11   SE      5
    8   11   ES      2
    8   11   EE     -9
************************************************************************
